(declare-sort Loc 0)
(declare-const l0 Loc)
(declare-const l1 Loc)
(declare-const l2 Loc)
(declare-const l3 Loc)
(declare-const l4 Loc)
(declare-const l5 Loc)
(declare-const l6 Loc)
(declare-const l7 Loc)
(declare-const l8 Loc)
(assert (distinct l0 l1 l2 l3 l4 l5 l6 l7 l8))

(define-fun cfg_init ( (pc Loc) (src Loc) (rel Bool) ) Bool
  (and (= pc src) rel))

(define-fun cfg_trans2 ( (pc Loc) (src Loc)
                         (pc1 Loc) (dst Loc)
                         (rel Bool) ) Bool
  (and (= pc src) (= pc1 dst) rel))

(define-fun cfg_trans3 ( (pc Loc) (exit Loc)
                         (pc1 Loc) (call Loc)
                         (pc2 Loc) (return Loc)
                         (rel Bool) ) Bool
  (and (= pc exit) (= pc1 call) (= pc2 return) rel))

(define-fun init_main ( (pc^0 Loc) (a_123^0 Int) (a_136^0 Int) (a_76^0 Int) (ct_18^0 Int) (h_15^0 Int) (h_30^0 Int) (i_115^0 Int) (i_28^0 Int) (i_98^0 Int) (l_27^0 Int) (nd_12^0 Int) (r_135^0 Int) (r_37^0 Int) (r_57^0 Int) (r_92^0 Int) (rt_11^0 Int) (rv_13^0 Int) (rv_31^0 Int) (st_16^0 Int) (st_29^0 Int) (t_24^0 Int) (t_32^0 Int) (tp_33^0 Int) (x_134^0 Int) (x_14^0 Int) (x_17^0 Int) (x_19^0 Int) (x_21^0 Int) (y_20^0 Int) ) Bool
  (cfg_init pc^0 l8 true))

(define-fun next_main (
                 (pc^0 Loc) (a_123^0 Int) (a_136^0 Int) (a_76^0 Int) (ct_18^0 Int) (h_15^0 Int) (h_30^0 Int) (i_115^0 Int) (i_28^0 Int) (i_98^0 Int) (l_27^0 Int) (nd_12^0 Int) (r_135^0 Int) (r_37^0 Int) (r_57^0 Int) (r_92^0 Int) (rt_11^0 Int) (rv_13^0 Int) (rv_31^0 Int) (st_16^0 Int) (st_29^0 Int) (t_24^0 Int) (t_32^0 Int) (tp_33^0 Int) (x_134^0 Int) (x_14^0 Int) (x_17^0 Int) (x_19^0 Int) (x_21^0 Int) (y_20^0 Int)
                 (pc^post Loc) (a_123^post Int) (a_136^post Int) (a_76^post Int) (ct_18^post Int) (h_15^post Int) (h_30^post Int) (i_115^post Int) (i_28^post Int) (i_98^post Int) (l_27^post Int) (nd_12^post Int) (r_135^post Int) (r_37^post Int) (r_57^post Int) (r_92^post Int) (rt_11^post Int) (rv_13^post Int) (rv_31^post Int) (st_16^post Int) (st_29^post Int) (t_24^post Int) (t_32^post Int) (tp_33^post Int) (x_134^post Int) (x_14^post Int) (x_17^post Int) (x_19^post Int) (x_21^post Int) (y_20^post Int)
             ) Bool
  (or
    (cfg_trans2 pc^0 l0 pc^post l1 (exists ( (nd_12^1 Int) ) (and (and (and (and (and (and (and (and (and (and (and (and (and (and (and (and (and (and (and (and (and (and (and (and (and (and (and (and (and (and (and (and (and (and (and (= nd_12^1 nd_12^1) (= rv_13^post (+ 0 nd_12^1))) (= nd_12^post nd_12^post)) (= l_27^post (+ 0 rv_13^post))) (= h_30^post 0)) (= i_28^post 0)) (<= 0 (+ 0 i_28^post))) (<= (+ 0 i_28^post) 0)) (<= 0 (+ 0 h_30^post))) (<= (+ 0 h_30^post) 0)) (<= (+ 0 rv_13^post) (+ 0 l_27^post))) (<= (+ 0 l_27^post) (+ 0 rv_13^post))) (= a_123^0 a_123^post)) (= a_136^0 a_136^post)) (= a_76^0 a_76^post)) (= ct_18^0 ct_18^post)) (= h_15^0 h_15^post)) (= i_115^0 i_115^post)) (= i_98^0 i_98^post)) (= r_135^0 r_135^post)) (= r_37^0 r_37^post)) (= r_57^0 r_57^post)) (= r_92^0 r_92^post)) (= rt_11^0 rt_11^post)) (= rv_31^0 rv_31^post)) (= st_16^0 st_16^post)) (= st_29^0 st_29^post)) (= t_24^0 t_24^post)) (= t_32^0 t_32^post)) (= tp_33^0 tp_33^post)) (= x_134^0 x_134^post)) (= x_14^0 x_14^post)) (= x_17^0 x_17^post)) (= x_19^0 x_19^post)) (= x_21^0 x_21^post)) (= y_20^0 y_20^post))))
    (cfg_trans2 pc^0 l2 pc^post l3 (exists ( (ct_18^1 Int) (ct_18^2 Int) (ct_18^3 Int) (h_15^1 Int) (h_15^2 Int) (h_15^3 Int) (rt_11^1 Int) (rt_11^2 Int) (rv_13^1 Int) (rv_13^2 Int) (rv_13^3 Int) (st_29^1 Int) (t_24^1 Int) (t_24^2 Int) (x_14^1 Int) (x_17^1 Int) (x_17^2 Int) (x_19^1 Int) (x_19^2 Int) (x_19^3 Int) (x_21^1 Int) (x_21^2 Int) (y_20^1 Int) (y_20^2 Int) ) (and (and (and (and (and (and (and (and (and (and (and (and (and (and (and (and (and (and (and (and (and (and (and (and (and (and (and (and (and (and (and (and (and (and (and (and (and (and (and (and (and (and (and (and (and (and (and (and (and (and (and (and (and (and (and (and (and (and (and (and (and (and (and (and (and (and (and (and (and (and (and (and (and (and (and (and (and (and (and (and (and (and (and (and (and (and (and (and (and (and (and (and (and (and (and (and (and (and (and (and (and (and (and (and (and (and (and (and (and (and (and (and (and (= rv_13^1 rv_13^1) (<= (+ 0 l_27^0) (+ 0 i_28^0))) (= st_29^1 (+ 0 h_30^0))) (= rt_11^1 (+ 0 st_29^1))) (= l_27^post l_27^post)) (= i_28^post i_28^post)) (= st_29^post st_29^post)) (= h_30^post h_30^post)) (= rv_31^post rv_31^post)) (= t_32^post t_32^post)) (= tp_33^post tp_33^post)) (= h_15^1 (+ 0 rt_11^1))) (= rt_11^2 rt_11^2)) (= x_14^1 (+ 0 h_15^1))) (<= 1 (+ 0 rv_13^1))) (<= (+ 0 rv_13^1) 1)) (<= (+ 0 x_14^1) (+ 0 h_15^1))) (<= (+ 0 h_15^1) (+ 0 x_14^1))) (<= 1 (+ 0 rv_13^1))) (<= (+ 0 rv_13^1) 1)) (= rv_13^2 rv_13^2)) (= h_15^2 h_15^2)) (<= 0 (+ 0 x_14^1))) (<= (+ 0 x_14^1) 0)) (<= 1 (+ 0 rv_13^2))) (<= (+ 0 rv_13^2) 1)) (<= 1 (+ 0 rv_13^2))) (<= (+ 0 rv_13^2) 1)) (= rv_13^3 rv_13^3)) (<= 0 (+ 0 x_14^1))) (<= (+ 0 x_14^1) 0)) (= x_17^1 (+ 0 h_15^2))) (= ct_18^1 0)) (= x_19^1 (+ 0 x_17^1))) (= y_20^1 (+ 0 ct_18^1))) (= x_21^1 (+ 0 x_19^1))) (<= 0 (+ 0 x_14^1))) (<= (+ 0 x_14^1) 0)) (<= 0 (+ 0 ct_18^1))) (<= (+ 0 ct_18^1) 0)) (<= 0 (+ 0 y_20^1))) (<= (+ 0 y_20^1) 0)) (<= 1 (+ 0 rv_13^3))) (<= (+ 0 rv_13^3) 1)) (<= (+ 0 h_15^2) (+ 0 x_17^1))) (<= (+ 0 x_17^1) (+ 0 h_15^2))) (<= (+ 0 h_15^2) (+ 0 x_19^1))) (<= (+ 0 x_19^1) (+ 0 h_15^2))) (<= (+ 0 h_15^2) (+ 0 x_21^1))) (<= (+ 0 x_21^1) (+ 0 h_15^2))) (<= (+ 0 x_17^1) (+ 0 x_19^1))) (<= (+ 0 x_19^1) (+ 0 x_17^1))) (<= (+ 0 ct_18^1) (+ 0 y_20^1))) (<= (+ 0 y_20^1) (+ 0 ct_18^1))) (<= (+ 0 x_19^1) (+ 0 x_21^1))) (<= (+ 0 x_21^1) (+ 0 x_19^1))) (<= 1 (+ 0 rv_13^3))) (<= (+ 0 rv_13^3) 1)) (= rv_13^post rv_13^post)) (= x_14^post x_14^post)) (= h_15^3 h_15^3)) (= x_17^2 x_17^2)) (= ct_18^2 ct_18^2)) (= x_19^2 x_19^2)) (= t_24^1 (+ 0 x_21^1))) (<= 0 (+ 0 x_14^post))) (<= (+ 0 x_14^post) 0)) (<= 0 (+ 0 ct_18^2))) (<= (+ 0 ct_18^2) 0)) (<= 0 (+ 0 y_20^1))) (<= (+ 0 y_20^1) 0)) (<= 0 (+ 0 x_21^1))) (<= (+ 0 x_21^1) 0)) (<= 1 (+ 0 rv_13^post))) (<= (+ 0 rv_13^post) 1)) (<= (+ 0 h_15^3) (+ 0 x_17^2))) (<= (+ 0 x_17^2) (+ 0 h_15^3))) (<= (+ 0 h_15^3) (+ 0 x_19^2))) (<= (+ 0 x_19^2) (+ 0 h_15^3))) (<= (+ 0 h_15^3) (+ 0 t_24^1))) (<= (+ 0 t_24^1) (+ 0 h_15^3))) (<= (+ 0 x_17^2) (+ 0 x_19^2))) (<= (+ 0 x_19^2) (+ 0 x_17^2))) (<= (+ 0 ct_18^2) (+ 0 y_20^1))) (<= (+ 0 y_20^1) (+ 0 ct_18^2))) (<= 1 (+ 0 rv_13^post))) (<= (+ 0 rv_13^post) 1)) (= h_15^post h_15^post)) (<= (+ 0 y_20^1) (+ 0 x_21^1))) (<= (+ 0 x_21^1) (+ 0 y_20^1))) (= x_19^3 x_19^3)) (= y_20^2 y_20^2)) (= x_21^2 x_21^2)) (= t_24^2 t_24^2)) (= ct_18^3 ct_18^3)) (= x_17^post x_17^post)) (= ct_18^post ct_18^post)) (= x_19^post x_19^post)) (= y_20^post y_20^post)) (= x_21^post x_21^post)) (= t_24^post t_24^post)) (= rt_11^post (+ 0 st_16^0))) (= a_123^0 a_123^post)) (= a_136^0 a_136^post)) (= a_76^0 a_76^post)) (= i_115^0 i_115^post)) (= i_98^0 i_98^post)) (= nd_12^0 nd_12^post)) (= r_135^0 r_135^post)) (= r_37^0 r_37^post)) (= r_57^0 r_57^post)) (= r_92^0 r_92^post)) (= st_16^0 st_16^post)) (= x_134^0 x_134^post))))
    (cfg_trans2 pc^0 l2 pc^post l4 (exists ( (i_28^1 Int) ) (and (and (and (and (and (and (and (and (and (and (and (and (and (and (and (and (and (and (and (and (and (and (and (and (and (and (and (and (and (and (and (and (and (and (and (and (and (and (and (and (and (and (and (and (= rv_13^post rv_13^post) (= rv_31^post rv_31^post)) (= r_57^post r_57^post)) (<= (+ 1 i_28^0) (+ 0 l_27^0))) (= t_32^post (+ 0 tp_33^0))) (= tp_33^post tp_33^post)) (= h_30^post (+ 0 t_32^post))) (= i_28^1 (+ 1 i_28^0))) (= i_28^post i_28^post)) (<= 2 (+ 0 i_28^post))) (<= (+ 0 i_28^post) 2)) (<= (+ 0 rv_13^post) (+ 0 l_27^0))) (<= (+ 0 l_27^0) (+ 0 rv_13^post))) (<= (+ 0 h_30^post) (+ 0 rv_31^post))) (<= (+ 0 rv_31^post) (+ 0 h_30^post))) (<= (+ 0 h_30^post) (+ 0 t_32^post))) (<= (+ 0 t_32^post) (+ 0 h_30^post))) (<= (+ 0 rv_31^post) (+ 0 t_32^post))) (<= (+ 0 t_32^post) (+ 0 rv_31^post))) (<= 1 (+ 0 l_27^0))) (<= 2 (+ 0 l_27^0))) (= a_76^post a_76^post)) (<= (+ 0 a_76^post) (+ 0 i_28^post))) (<= (+ 0 i_28^post) (+ 0 a_76^post))) (= a_123^0 a_123^post)) (= a_136^0 a_136^post)) (= ct_18^0 ct_18^post)) (= h_15^0 h_15^post)) (= i_115^0 i_115^post)) (= i_98^0 i_98^post)) (= l_27^0 l_27^post)) (= nd_12^0 nd_12^post)) (= r_135^0 r_135^post)) (= r_37^0 r_37^post)) (= r_92^0 r_92^post)) (= rt_11^0 rt_11^post)) (= st_16^0 st_16^post)) (= st_29^0 st_29^post)) (= t_24^0 t_24^post)) (= x_134^0 x_134^post)) (= x_14^0 x_14^post)) (= x_17^0 x_17^post)) (= x_19^0 x_19^post)) (= x_21^0 x_21^post)) (= y_20^0 y_20^post))))
    (cfg_trans2 pc^0 l5 pc^post l3 (exists ( (ct_18^1 Int) (ct_18^2 Int) (ct_18^3 Int) (rv_13^1 Int) (rv_13^2 Int) (t_24^1 Int) (t_24^2 Int) (x_17^1 Int) (x_17^2 Int) (x_19^1 Int) (x_19^2 Int) (x_19^3 Int) (x_21^1 Int) (x_21^2 Int) (y_20^1 Int) (y_20^2 Int) ) (and (and (and (and (and (and (and (and (and (and (and (and (and (and (and (and (and (and (and (and (and (and (and (and (and (and (and (and (and (and (and (and (and (and (and (and (and (and (and (and (and (and (and (and (and (and (and (and (and (and (and (and (and (and (and (and (and (and (and (and (and (and (and (and (and (and (and (and (and (and (and (and (and (and (and (and (and (and (and (and (and (and (and (and (and (and (and (and (and (and (and (<= 0 (+ 0 a_123^0)) (= rv_13^1 rv_13^1)) (<= 0 (+ 0 x_14^0))) (<= (+ 0 x_14^0) 0)) (= x_17^1 (+ 0 h_15^0))) (= ct_18^1 0)) (= x_19^1 (+ 0 x_17^1))) (= y_20^1 (+ 0 ct_18^1))) (= x_21^1 (+ 0 x_19^1))) (<= 0 (+ 0 x_14^0))) (<= (+ 0 x_14^0) 0)) (<= 0 (+ 0 ct_18^1))) (<= (+ 0 ct_18^1) 0)) (<= 0 (+ 0 y_20^1))) (<= (+ 0 y_20^1) 0)) (<= (+ 0 h_15^0) (+ 0 x_17^1))) (<= (+ 0 x_17^1) (+ 0 h_15^0))) (<= (+ 0 h_15^0) (+ 0 x_19^1))) (<= (+ 0 x_19^1) (+ 0 h_15^0))) (<= (+ 0 h_15^0) (+ 0 x_21^1))) (<= (+ 0 x_21^1) (+ 0 h_15^0))) (<= (+ 0 x_17^1) (+ 0 x_19^1))) (<= (+ 0 x_19^1) (+ 0 x_17^1))) (<= (+ 0 ct_18^1) (+ 0 y_20^1))) (<= (+ 0 y_20^1) (+ 0 ct_18^1))) (<= (+ 0 x_19^1) (+ 0 x_21^1))) (<= (+ 0 x_21^1) (+ 0 x_19^1))) (<= 1 (+ 0 rv_13^1))) (<= 2 (+ 0 rv_13^1))) (= rv_13^2 rv_13^2)) (= x_14^post x_14^post)) (= h_15^post h_15^post)) (= x_17^2 x_17^2)) (= ct_18^2 ct_18^2)) (= x_19^2 x_19^2)) (= t_24^1 (+ 0 x_21^1))) (<= 0 (+ 0 x_14^post))) (<= (+ 0 x_14^post) 0)) (<= 0 (+ 0 ct_18^2))) (<= (+ 0 ct_18^2) 0)) (<= 0 (+ 0 y_20^1))) (<= (+ 0 y_20^1) 0)) (<= 0 (+ 0 x_21^1))) (<= (+ 0 x_21^1) 0)) (<= (+ 0 h_15^post) (+ 0 x_17^2))) (<= (+ 0 x_17^2) (+ 0 h_15^post))) (<= (+ 0 h_15^post) (+ 0 x_19^2))) (<= (+ 0 x_19^2) (+ 0 h_15^post))) (<= (+ 0 h_15^post) (+ 0 t_24^1))) (<= (+ 0 t_24^1) (+ 0 h_15^post))) (<= (+ 0 x_17^2) (+ 0 x_19^2))) (<= (+ 0 x_19^2) (+ 0 x_17^2))) (<= (+ 0 ct_18^2) (+ 0 y_20^1))) (<= (+ 0 y_20^1) (+ 0 ct_18^2))) (<= 1 (+ 0 rv_13^2))) (<= 2 (+ 0 rv_13^2))) (= rv_13^post rv_13^post)) (<= (+ 0 y_20^1) (+ 0 x_21^1))) (<= (+ 0 x_21^1) (+ 0 y_20^1))) (= x_19^3 x_19^3)) (= y_20^2 y_20^2)) (= x_21^2 x_21^2)) (= t_24^2 t_24^2)) (= ct_18^3 ct_18^3)) (= x_17^post x_17^post)) (= ct_18^post ct_18^post)) (= x_19^post x_19^post)) (= y_20^post y_20^post)) (= x_21^post x_21^post)) (= t_24^post t_24^post)) (= rt_11^post (+ 0 st_16^0))) (<= 1 (+ 0 rv_13^post))) (<= 2 (+ 0 rv_13^post))) (= a_123^0 a_123^post)) (= a_136^0 a_136^post)) (= a_76^0 a_76^post)) (= h_30^0 h_30^post)) (= i_115^0 i_115^post)) (= i_28^0 i_28^post)) (= i_98^0 i_98^post)) (= l_27^0 l_27^post)) (= nd_12^0 nd_12^post)) (= r_135^0 r_135^post)) (= r_37^0 r_37^post)) (= r_57^0 r_57^post)) (= r_92^0 r_92^post)) (= rv_31^0 rv_31^post)) (= st_16^0 st_16^post)) (= st_29^0 st_29^post)) (= t_32^0 t_32^post)) (= tp_33^0 tp_33^post)) (= x_134^0 x_134^post))))
    (cfg_trans2 pc^0 l5 pc^post l6 (and (and (and (and (and (and (and (and (and (and (and (and (and (and (and (and (and (and (and (and (and (and (and (and (and (and (and (and (and (and (and (and (and (and (and (and (and (and (and (and (and (and (and (<= 0 (+ 0 a_123^0)) (= rv_13^post rv_13^post)) (= h_15^post h_15^post)) (= x_134^post x_134^post)) (= r_135^post r_135^post)) (= a_136^post a_136^post)) (<= 0 (+ (+ 0 (* -1 a_123^0)) a_136^post))) (<= (+ (+ 0 (* -1 a_123^0)) a_136^post) 0)) (<= (+ 0 x_14^0) (+ 0 x_134^post))) (<= (+ 0 x_134^post) (+ 0 x_14^0))) (<= (+ 0 a_123^0) (+ 0 a_136^post))) (<= (+ 0 a_136^post) (+ 0 a_123^0))) (<= (+ 0 r_37^0) (+ 0 r_135^post))) (<= (+ 0 r_135^post) (+ 0 r_37^0))) (<= 1 (+ 0 rv_13^post))) (<= 2 (+ 0 rv_13^post))) (= r_37^post r_37^post)) (<= (+ 0 r_37^post) (+ 0 r_135^post))) (<= (+ 0 r_135^post) (+ 0 r_37^post))) (= a_123^post a_123^post)) (<= (+ 0 a_123^post) (+ 0 a_136^post))) (<= (+ 0 a_136^post) (+ 0 a_123^post))) (= a_76^0 a_76^post)) (= ct_18^0 ct_18^post)) (= h_30^0 h_30^post)) (= i_115^0 i_115^post)) (= i_28^0 i_28^post)) (= i_98^0 i_98^post)) (= l_27^0 l_27^post)) (= nd_12^0 nd_12^post)) (= r_57^0 r_57^post)) (= r_92^0 r_92^post)) (= rt_11^0 rt_11^post)) (= rv_31^0 rv_31^post)) (= st_16^0 st_16^post)) (= st_29^0 st_29^post)) (= t_24^0 t_24^post)) (= t_32^0 t_32^post)) (= tp_33^0 tp_33^post)) (= x_14^0 x_14^post)) (= x_17^0 x_17^post)) (= x_19^0 x_19^post)) (= x_21^0 x_21^post)) (= y_20^0 y_20^post)))
    (cfg_trans2 pc^0 l6 pc^post l5 (and (and (and (and (and (and (and (and (and (and (and (and (and (and (and (and (and (and (and (and (and (and (and (and (and (and (and (and (= a_123^0 a_123^post) (= a_136^0 a_136^post)) (= a_76^0 a_76^post)) (= ct_18^0 ct_18^post)) (= h_15^0 h_15^post)) (= h_30^0 h_30^post)) (= i_115^0 i_115^post)) (= i_28^0 i_28^post)) (= i_98^0 i_98^post)) (= l_27^0 l_27^post)) (= nd_12^0 nd_12^post)) (= r_135^0 r_135^post)) (= r_37^0 r_37^post)) (= r_57^0 r_57^post)) (= r_92^0 r_92^post)) (= rt_11^0 rt_11^post)) (= rv_13^0 rv_13^post)) (= rv_31^0 rv_31^post)) (= st_16^0 st_16^post)) (= st_29^0 st_29^post)) (= t_24^0 t_24^post)) (= t_32^0 t_32^post)) (= tp_33^0 tp_33^post)) (= x_134^0 x_134^post)) (= x_14^0 x_14^post)) (= x_17^0 x_17^post)) (= x_19^0 x_19^post)) (= x_21^0 x_21^post)) (= y_20^0 y_20^post)))
    (cfg_trans2 pc^0 l4 pc^post l5 (exists ( (h_15^1 Int) (rt_11^1 Int) (rv_13^1 Int) (st_29^1 Int) ) (and (and (and (and (and (and (and (and (and (and (and (and (and (and (and (and (and (and (and (and (and (and (and (and (and (and (and (and (and (and (and (and (and (and (and (and (and (and (and (and (and (and (and (<= 0 (+ 0 i_28^0)) (= rv_13^1 rv_13^1)) (<= (+ 0 l_27^0) (+ 0 i_28^0))) (= st_29^1 (+ 0 h_30^0))) (= rt_11^1 (+ 0 st_29^1))) (= l_27^post l_27^post)) (= i_28^post i_28^post)) (= st_29^post st_29^post)) (= h_30^post h_30^post)) (= rv_31^post rv_31^post)) (= t_32^post t_32^post)) (= tp_33^post tp_33^post)) (= h_15^1 (+ 0 rt_11^1))) (= rt_11^post rt_11^post)) (= x_14^post (+ 0 h_15^1))) (<= (+ 0 x_14^post) (+ 0 h_15^1))) (<= (+ 0 h_15^1) (+ 0 x_14^post))) (<= 1 (+ 0 rv_13^1))) (<= 2 (+ 0 rv_13^1))) (<= (+ 0 rv_13^1) (+ 0 i_28^post))) (<= 0 (+ 0 i_28^post))) (= rv_13^post rv_13^post)) (= h_15^post h_15^post)) (= i_115^post i_115^post)) (<= 1 (+ 0 rv_13^post))) (<= 2 (+ 0 rv_13^post))) (<= (+ 0 rv_13^post) (+ 0 i_115^post))) (= a_123^0 a_123^post)) (= a_136^0 a_136^post)) (= a_76^0 a_76^post)) (= ct_18^0 ct_18^post)) (= i_98^0 i_98^post)) (= nd_12^0 nd_12^post)) (= r_135^0 r_135^post)) (= r_37^0 r_37^post)) (= r_57^0 r_57^post)) (= r_92^0 r_92^post)) (= st_16^0 st_16^post)) (= t_24^0 t_24^post)) (= x_134^0 x_134^post)) (= x_17^0 x_17^post)) (= x_19^0 x_19^post)) (= x_21^0 x_21^post)) (= y_20^0 y_20^post))))
    (cfg_trans2 pc^0 l4 pc^post l7 (and (and (and (and (and (and (and (and (and (and (and (and (and (and (and (and (and (and (and (and (and (and (and (and (and (and (and (and (and (and (and (and (and (and (and (<= 0 (+ 0 i_28^0)) (= r_92^post r_92^post)) (= i_98^post i_98^post)) (<= (+ 1 i_28^0) (+ 0 l_27^0))) (= t_32^post (+ 0 tp_33^0))) (= tp_33^post tp_33^post)) (= h_30^post (+ 0 t_32^post))) (= i_28^post (+ 1 i_28^0))) (<= (+ 0 i_28^post) (+ 1 i_98^post))) (<= (+ 1 i_98^post) (+ 0 i_28^post))) (<= (+ 0 i_98^post) (+ -1 i_28^post))) (<= (+ -1 i_28^post) (+ 0 i_98^post))) (<= (+ 1 i_98^post) (+ 0 l_27^0))) (= a_123^0 a_123^post)) (= a_136^0 a_136^post)) (= a_76^0 a_76^post)) (= ct_18^0 ct_18^post)) (= h_15^0 h_15^post)) (= i_115^0 i_115^post)) (= l_27^0 l_27^post)) (= nd_12^0 nd_12^post)) (= r_135^0 r_135^post)) (= r_37^0 r_37^post)) (= r_57^0 r_57^post)) (= rt_11^0 rt_11^post)) (= rv_13^0 rv_13^post)) (= rv_31^0 rv_31^post)) (= st_16^0 st_16^post)) (= st_29^0 st_29^post)) (= t_24^0 t_24^post)) (= x_134^0 x_134^post)) (= x_14^0 x_14^post)) (= x_17^0 x_17^post)) (= x_19^0 x_19^post)) (= x_21^0 x_21^post)) (= y_20^0 y_20^post)))
    (cfg_trans2 pc^0 l7 pc^post l4 (and (and (and (and (and (and (and (and (and (and (and (and (and (and (and (and (and (and (and (and (and (and (and (and (and (and (and (and (= a_123^0 a_123^post) (= a_136^0 a_136^post)) (= a_76^0 a_76^post)) (= ct_18^0 ct_18^post)) (= h_15^0 h_15^post)) (= h_30^0 h_30^post)) (= i_115^0 i_115^post)) (= i_28^0 i_28^post)) (= i_98^0 i_98^post)) (= l_27^0 l_27^post)) (= nd_12^0 nd_12^post)) (= r_135^0 r_135^post)) (= r_37^0 r_37^post)) (= r_57^0 r_57^post)) (= r_92^0 r_92^post)) (= rt_11^0 rt_11^post)) (= rv_13^0 rv_13^post)) (= rv_31^0 rv_31^post)) (= st_16^0 st_16^post)) (= st_29^0 st_29^post)) (= t_24^0 t_24^post)) (= t_32^0 t_32^post)) (= tp_33^0 tp_33^post)) (= x_134^0 x_134^post)) (= x_14^0 x_14^post)) (= x_17^0 x_17^post)) (= x_19^0 x_19^post)) (= x_21^0 x_21^post)) (= y_20^0 y_20^post)))
    (cfg_trans2 pc^0 l1 pc^post l3 (exists ( (ct_18^1 Int) (ct_18^2 Int) (rt_11^1 Int) (rt_11^2 Int) (rv_13^1 Int) (rv_13^2 Int) (st_29^1 Int) (t_24^1 Int) (x_17^1 Int) (x_19^1 Int) (x_19^2 Int) (x_21^1 Int) (x_21^2 Int) (y_20^1 Int) (y_20^2 Int) ) (and (and (and (and (and (and (and (and (and (and (and (and (and (and (and (and (and (and (and (and (and (and (and (and (and (and (and (and (and (and (and (and (and (and (and (and (and (and (and (and (and (and (and (and (and (and (and (and (and (and (and (and (and (and (and (and (and (and (and (and (and (and (and (and (and (and (and (and (and (and (and (and (and (and (and (and (and (and (and (and (and (= rv_13^1 rv_13^1) (<= (+ 0 l_27^0) (+ 0 i_28^0))) (= st_29^1 (+ 0 h_30^0))) (= rt_11^1 (+ 0 st_29^1))) (= l_27^post l_27^post)) (= i_28^post i_28^post)) (= st_29^post st_29^post)) (= h_30^post h_30^post)) (= rv_31^post rv_31^post)) (= t_32^post t_32^post)) (= tp_33^post tp_33^post)) (= h_15^post (+ 0 rt_11^1))) (= rt_11^2 rt_11^2)) (= x_14^post (+ 0 h_15^post))) (<= 0 (+ 0 x_14^post))) (<= (+ 0 x_14^post) 0)) (<= 0 (+ 0 h_15^post))) (<= (+ 0 h_15^post) 0)) (<= (+ 0 x_14^post) (+ 0 h_15^post))) (<= (+ 0 h_15^post) (+ 0 x_14^post))) (<= (+ 0 rv_13^1) 0)) (= rv_13^2 rv_13^2)) (<= 0 (+ 0 x_14^post))) (<= (+ 0 x_14^post) 0)) (= x_17^1 (+ 0 h_15^post))) (= ct_18^1 0)) (= x_19^1 (+ 0 x_17^1))) (= y_20^1 (+ 0 ct_18^1))) (= x_21^1 (+ 0 x_19^1))) (<= 0 (+ 0 x_14^post))) (<= (+ 0 x_14^post) 0)) (<= 0 (+ 0 h_15^post))) (<= (+ 0 h_15^post) 0)) (<= 0 (+ 0 x_17^1))) (<= (+ 0 x_17^1) 0)) (<= 0 (+ 0 ct_18^1))) (<= (+ 0 ct_18^1) 0)) (<= 0 (+ 0 x_19^1))) (<= (+ 0 x_19^1) 0)) (<= 0 (+ 0 y_20^1))) (<= (+ 0 y_20^1) 0)) (<= 0 (+ 0 x_21^1))) (<= (+ 0 x_21^1) 0)) (<= (+ 0 x_14^post) (+ 0 h_15^post))) (<= (+ 0 h_15^post) (+ 0 x_14^post))) (<= (+ 0 h_15^post) (+ 0 x_17^1))) (<= (+ 0 x_17^1) (+ 0 h_15^post))) (<= (+ 0 x_17^1) (+ 0 x_19^1))) (<= (+ 0 x_19^1) (+ 0 x_17^1))) (<= (+ 0 ct_18^1) (+ 0 y_20^1))) (<= (+ 0 y_20^1) (+ 0 ct_18^1))) (<= (+ 0 x_19^1) (+ 0 x_21^1))) (<= (+ 0 x_21^1) (+ 0 x_19^1))) (<= (+ 0 rv_13^2) 0)) (= rv_13^post rv_13^post)) (<= (+ 0 y_20^1) (+ 0 x_21^1))) (<= (+ 0 x_21^1) (+ 0 y_20^1))) (= x_19^2 x_19^2)) (= y_20^2 y_20^2)) (= x_21^2 x_21^2)) (= t_24^1 t_24^1)) (= ct_18^2 ct_18^2)) (= x_17^post x_17^post)) (= ct_18^post ct_18^post)) (= x_19^post x_19^post)) (= y_20^post y_20^post)) (= x_21^post x_21^post)) (= t_24^post t_24^post)) (= rt_11^post (+ 0 st_16^0))) (<= (+ 0 rv_13^post) 0)) (= a_123^0 a_123^post)) (= a_136^0 a_136^post)) (= a_76^0 a_76^post)) (= i_115^0 i_115^post)) (= i_98^0 i_98^post)) (= nd_12^0 nd_12^post)) (= r_135^0 r_135^post)) (= r_37^0 r_37^post)) (= r_57^0 r_57^post)) (= r_92^0 r_92^post)) (= st_16^0 st_16^post)) (= x_134^0 x_134^post))))
    (cfg_trans2 pc^0 l1 pc^post l2 (and (and (and (and (and (and (and (and (and (and (and (and (and (and (and (and (and (and (and (and (and (and (and (and (and (and (and (and (and (and (and (and (and (and (and (and (and (and (and (and (= rv_13^post rv_13^post) (= rv_31^post rv_31^post)) (<= (+ 1 i_28^0) (+ 0 l_27^0))) (= t_32^post (+ 0 tp_33^0))) (= tp_33^post tp_33^post)) (= h_30^post (+ 0 t_32^post))) (= i_28^post (+ 1 i_28^0))) (<= 1 (+ 0 i_28^post))) (<= (+ 0 i_28^post) 1)) (<= (+ 0 rv_13^post) (+ 0 l_27^0))) (<= (+ 0 l_27^0) (+ 0 rv_13^post))) (<= (+ 0 h_30^post) (+ 0 rv_31^post))) (<= (+ 0 rv_31^post) (+ 0 h_30^post))) (<= (+ 0 h_30^post) (+ 0 t_32^post))) (<= (+ 0 t_32^post) (+ 0 h_30^post))) (<= (+ 0 rv_31^post) (+ 0 t_32^post))) (<= (+ 0 t_32^post) (+ 0 rv_31^post))) (<= 1 (+ 0 l_27^0))) (= a_123^0 a_123^post)) (= a_136^0 a_136^post)) (= a_76^0 a_76^post)) (= ct_18^0 ct_18^post)) (= h_15^0 h_15^post)) (= i_115^0 i_115^post)) (= i_98^0 i_98^post)) (= l_27^0 l_27^post)) (= nd_12^0 nd_12^post)) (= r_135^0 r_135^post)) (= r_37^0 r_37^post)) (= r_57^0 r_57^post)) (= r_92^0 r_92^post)) (= rt_11^0 rt_11^post)) (= st_16^0 st_16^post)) (= st_29^0 st_29^post)) (= t_24^0 t_24^post)) (= x_134^0 x_134^post)) (= x_14^0 x_14^post)) (= x_17^0 x_17^post)) (= x_19^0 x_19^post)) (= x_21^0 x_21^post)) (= y_20^0 y_20^post)))
    (cfg_trans2 pc^0 l8 pc^post l0 (and (and (and (and (and (and (and (and (and (and (and (and (and (and (and (and (and (and (and (and (and (and (and (and (and (and (and (and (= a_123^0 a_123^post) (= a_136^0 a_136^post)) (= a_76^0 a_76^post)) (= ct_18^0 ct_18^post)) (= h_15^0 h_15^post)) (= h_30^0 h_30^post)) (= i_115^0 i_115^post)) (= i_28^0 i_28^post)) (= i_98^0 i_98^post)) (= l_27^0 l_27^post)) (= nd_12^0 nd_12^post)) (= r_135^0 r_135^post)) (= r_37^0 r_37^post)) (= r_57^0 r_57^post)) (= r_92^0 r_92^post)) (= rt_11^0 rt_11^post)) (= rv_13^0 rv_13^post)) (= rv_31^0 rv_31^post)) (= st_16^0 st_16^post)) (= st_29^0 st_29^post)) (= t_24^0 t_24^post)) (= t_32^0 t_32^post)) (= tp_33^0 tp_33^post)) (= x_134^0 x_134^post)) (= x_14^0 x_14^post)) (= x_17^0 x_17^post)) (= x_19^0 x_19^post)) (= x_21^0 x_21^post)) (= y_20^0 y_20^post)))
  )
)
